
Starting CP-SAT solver v9.15.6755
Parameters: random_seed: 2026073681 max_time_in_seconds: 2500 log_search_progress: true cp_model_presolve: true linearization_level: 2 num_search_workers: 4 cp_model_probing_level: 2 symmetry_level: 2

Initial satisfaction model '': (model_fingerprint: 0x9eba1409a8df8045)
#Variables: 724 (608 primary variables)
  - 724 Booleans in [0,1]
#kBoolAnd: 110 (#enforced: 110) (#literals: 330)
#kBoolOr: 110 (#enforced: 110) (#literals: 220)
#kExactlyOne: 87 (#literals: 261)
#kLinear1: 32 (#enforced: 6)
#kLinear2: 336 (#enforced: 336) (#complex_domain: 110)
#kLinear3: 1'600 (#enforced: 6)
#kLinearN: 1'132 (#enforced: 243) (#terms: 9'111)

Starting presolve at 0.00s
  6.57e-04s  0.00e+00d  [DetectDominanceRelations] 
  8.80e-03s  0.00e+00d  [PresolveToFixPoint] #num_loops=3 #num_dual_strengthening=1 
  3.77e-05s  0.00e+00d  [ExtractEncodingFromLinear] #potential_supersets=86 
  3.02e-04s  0.00e+00d  [DetectDuplicateColumns] 
  9.84e-05s  0.00e+00d  [DetectDuplicateConstraints] #duplicates=5 
[Symmetry] Graph for symmetry has 4'868 nodes and 15'716 arcs.
[Symmetry] Symmetry computation done. time: 0.00145313 dtime: 0.00214881
[SAT presolve] num removable Booleans: 220 / 626
[SAT presolve] num trivial clauses: 0
[SAT presolve] [0s] clauses:2'728 literals:7'416 vars:506 one_side_vars:66 simple_definition:1 singleton_clauses:0
[SAT presolve] [0.000220815s] clauses:2'727 literals:7'409 vars:506 one_side_vars:66 simple_definition:1 singleton_clauses:0
[SAT presolve] [0.000587264s] clauses:2'406 literals:6'904 vars:389 one_side_vars:68 simple_definition:24 singleton_clauses:0
  1.21e-04s  0.00e+00d  [DetectDuplicateConstraintsWithDifferentEnforcements] #without_enforcements=1 
  5.63e-03s  2.72e-03d  [Probe] #probed=1'300 #fixed_bools=16 #equiv=9 #new_binary_clauses=804 
  5.36e-04s  3.72e-04d  [MaxClique] Merged 657 constraints with 1'440 literals into 582 constraints with 1'315 literals
  8.56e-04s  0.00e+00d  [DetectDominanceRelations] 
  3.15e-03s  0.00e+00d  [PresolveToFixPoint] #num_loops=1 #num_dual_strengthening=1 
  1.17e-03s  0.00e+00d  [ProcessAtMostOneAndLinear] 
  1.11e-04s  0.00e+00d  [DetectDuplicateConstraints] #duplicates=10 
  9.19e-05s  0.00e+00d  [DetectDuplicateConstraintsWithDifferentEnforcements] 
  1.20e-03s  6.63e-05d  [DetectDominatedLinearConstraints] #relevant_constraints=825 #num_inclusions=345 #num_redundant=6 
  1.28e-04s  0.00e+00d  [DetectDifferentVariables] 
  7.51e-04s  8.87e-05d  [ProcessSetPPC] #relevant_constraints=3'155 #num_inclusions=225 
  2.85e-04s  3.42e-05d  [TransformClausesToExactlyOne] #num_amos=576 #num_clauses=1'762 #num_checked=1'762 
  5.27e-05s  0.00e+00d  [DetectEncodedComplexDomains] 
  3.49e-05s  0.00e+00d  [FindAlmostIdenticalLinearConstraints] 
  9.14e-04s  1.40e-03d  [FindBigAtMostOneAndLinearOverlap] 
  1.45e-03s  1.24e-03d  [FindBigVerticalLinearOverlap] #blocks=1 #saved_nz=31 
  3.97e-04s  7.08e-04d  [FindBigHorizontalLinearOverlap] #linears=460 
  3.38e-04s  2.79e-05d  [MergeClauses] #num_collisions=7 #num_merges=7 #num_saved_literals=29 
  8.41e-04s  0.00e+00d  [DetectDominanceRelations] 
  3.03e-03s  0.00e+00d  [PresolveToFixPoint] #num_loops=2 #num_dual_strengthening=1 
  8.30e-04s  0.00e+00d  [DetectDominanceRelations] 
  2.99e-03s  0.00e+00d  [PresolveToFixPoint] #num_loops=1 #num_dual_strengthening=1 
  1.49e-04s  0.00e+00d  [DetectDuplicateColumns] 
  9.56e-05s  0.00e+00d  [DetectDuplicateConstraints] 
[Symmetry] Graph for symmetry has 4'456 nodes and 13'979 arcs.
[Symmetry] Symmetry computation done. time: 0.00110723 dtime: 0.00161294
[SAT presolve] num removable Booleans: 102 / 484
[SAT presolve] num trivial clauses: 0
[SAT presolve] [0s] clauses:2'293 literals:6'637 vars:458 one_side_vars:142 simple_definition:36 singleton_clauses:0
[SAT presolve] [0.000220093s] clauses:2'293 literals:6'478 vars:458 one_side_vars:156 simple_definition:82 singleton_clauses:0
[SAT presolve] [0.00035145s] clauses:2'156 literals:6'168 vars:452 one_side_vars:184 simple_definition:58 singleton_clauses:0
  1.63e-04s  0.00e+00d  [DetectDuplicateConstraintsWithDifferentEnforcements] 
  4.57e-03s  1.68e-03d  [Probe] #probed=1'284 #new_binary_clauses=298 
  4.22e-04s  2.55e-04d  [MaxClique] Merged 499 constraints with 1'086 literals into 495 constraints with 1'086 literals
  8.37e-04s  0.00e+00d  [DetectDominanceRelations] 
  3.06e-03s  0.00e+00d  [PresolveToFixPoint] #num_loops=1 #num_dual_strengthening=1 
  1.10e-03s  0.00e+00d  [ProcessAtMostOneAndLinear] 
  1.43e-04s  0.00e+00d  [DetectDuplicateConstraints] 
  1.11e-04s  0.00e+00d  [DetectDuplicateConstraintsWithDifferentEnforcements] 
  1.24e-03s  6.38e-05d  [DetectDominatedLinearConstraints] #relevant_constraints=818 #num_inclusions=332 #num_redundant=1 
  1.35e-04s  0.00e+00d  [DetectDifferentVariables] 
  7.38e-04s  7.86e-05d  [ProcessSetPPC] #relevant_constraints=3'064 #num_inclusions=116 
  2.85e-04s  3.25e-05d  [TransformClausesToExactlyOne] #num_amos=495 #num_clauses=1'699 #num_checked=1'699 
  5.22e-05s  0.00e+00d  [DetectEncodedComplexDomains] 
  4.18e-05s  0.00e+00d  [FindAlmostIdenticalLinearConstraints] 
  8.67e-04s  1.27e-03d  [FindBigAtMostOneAndLinearOverlap] 
  1.35e-03s  1.13e-03d  [FindBigVerticalLinearOverlap] #blocks=1 #saved_nz=37 
  3.74e-04s  6.29e-04d  [FindBigHorizontalLinearOverlap] #linears=458 
  3.21e-04s  2.62e-05d  [MergeClauses] #num_collisions=74 #num_merges=74 #num_saved_literals=192 
  8.49e-04s  0.00e+00d  [DetectDominanceRelations] 
  3.06e-03s  0.00e+00d  [PresolveToFixPoint] #num_loops=2 #num_dual_strengthening=1 
  8.43e-04s  0.00e+00d  [DetectDominanceRelations] 
  3.02e-03s  0.00e+00d  [PresolveToFixPoint] #num_loops=1 #num_dual_strengthening=1 
  1.60e-04s  0.00e+00d  [DetectDuplicateColumns] 
  1.31e-04s  0.00e+00d  [DetectDuplicateConstraints] 
[Symmetry] Graph for symmetry has 4'250 nodes and 13'181 arcs.
[Symmetry] Symmetry computation done. time: 0.00102156 dtime: 0.00144098
[SAT presolve] num removable Booleans: 96 / 478
[SAT presolve] num trivial clauses: 0
[SAT presolve] [0s] clauses:2'147 literals:6'139 vars:452 one_side_vars:186 simple_definition:58 singleton_clauses:0
[SAT presolve] [0.000194746s] clauses:2'147 literals:6'139 vars:452 one_side_vars:186 simple_definition:58 singleton_clauses:0
[SAT presolve] [0.00025526s] clauses:2'147 literals:6'139 vars:452 one_side_vars:186 simple_definition:58 singleton_clauses:0
  1.20e-04s  0.00e+00d  [DetectDuplicateConstraintsWithDifferentEnforcements] 
  4.55e-03s  1.67e-03d  [Probe] #probed=1'284 #new_binary_clauses=297 
  4.12e-04s  2.52e-04d  [MaxClique] Merged 493 constraints with 1'074 literals into 492 constraints with 1'073 literals
  8.69e-04s  0.00e+00d  [DetectDominanceRelations] 
  3.10e-03s  0.00e+00d  [PresolveToFixPoint] #num_loops=1 #num_dual_strengthening=1 
  1.10e-03s  0.00e+00d  [ProcessAtMostOneAndLinear] 
  1.14e-04s  0.00e+00d  [DetectDuplicateConstraints] 
  1.19e-04s  0.00e+00d  [DetectDuplicateConstraintsWithDifferentEnforcements] 
  8.08e-04s  5.70e-05d  [DetectDominatedLinearConstraints] #relevant_constraints=816 #num_inclusions=301 #num_redundant=1 
  1.35e-04s  0.00e+00d  [DetectDifferentVariables] 
  7.12e-04s  7.54e-05d  [ProcessSetPPC] #relevant_constraints=3'059 #num_inclusions=102 
  3.00e-04s  3.25e-05d  [TransformClausesToExactlyOne] #num_amos=492 #num_clauses=1'699 #num_checked=1'699 
  5.22e-05s  0.00e+00d  [DetectEncodedComplexDomains] 
  4.74e-05s  1.00e-07d  [FindAlmostIdenticalLinearConstraints] #num_tested_pairs=1 
  8.21e-04s  1.16e-03d  [FindBigAtMostOneAndLinearOverlap] 
  1.28e-03s  1.03e-03d  [FindBigVerticalLinearOverlap] #blocks=1 #saved_nz=31 
  3.44e-04s  5.56e-04d  [FindBigHorizontalLinearOverlap] #linears=456 
  3.51e-04s  2.62e-05d  [MergeClauses] #num_collisions=74 #num_merges=74 #num_saved_literals=192 
  8.68e-04s  0.00e+00d  [DetectDominanceRelations] 
  3.09e-03s  0.00e+00d  [PresolveToFixPoint] #num_loops=2 #num_dual_strengthening=1 
  3.04e-05s  0.00e+00d  [MergeNoOverlap] 
  3.09e-05s  0.00e+00d  [MergeNoOverlap2D] 

Presolve summary:
  - 42 affine relations were detected.
  - rule 'TODO dual: only one blocking constraint?' was applied 839 times.
  - rule 'TODO linear inclusion: superset is equality' was applied 87 times.
  - rule 'affine: new relation' was applied 42 times.
  - rule 'at_most_one: removed literals' was applied 61 times.
  - rule 'at_most_one: size one' was applied 60 times.
  - rule 'at_most_one: transformed into max clique' was applied 3 times.
  - rule 'bool_or: implications' was applied 66 times.
  - rule 'bool_or: only one literal' was applied 12 times.
  - rule 'bool_or: removed enforcement literal' was applied 557 times.
  - rule 'deductions: 854 stored' was applied 1 time.
  - rule 'duplicate: merged rhs of linear constraint' was applied 14 times.
  - rule 'duplicate: removed constraint' was applied 15 times.
  - rule 'duplicate: removed enforced constraint' was applied 1 time.
  - rule 'enforcement: false literal' was applied 38 times.
  - rule 'enforcement: true literal' was applied 12 times.
  - rule 'exactly_one: removed literals' was applied 32 times.
  - rule 'exactly_one: satisfied' was applied 3 times.
  - rule 'exactly_one: singleton' was applied 2 times.
  - rule 'exactly_one: size two' was applied 30 times.
  - rule 'exactly_one: x and not(x)' was applied 6 times.
  - rule 'incompatible linear: add implication' was applied 126 times.
  - rule 'linear + amo: empty after processing' was applied 6 times.
  - rule 'linear + amo: extracted enforcement literal' was applied 52 times.
  - rule 'linear + amo: trivial linear constraint' was applied 1 time.
  - rule 'linear inclusion: redundant containing constraint' was applied 2 times.
  - rule 'linear inclusion: redundant included constraint' was applied 3 times.
  - rule 'linear inclusion: sparsify superset' was applied 3 times.
  - rule 'linear matrix: common vertical rectangle' was applied 3 times.
  - rule 'linear1: always true' was applied 3 times.
  - rule 'linear1: x in domain' was applied 26 times.
  - rule 'linear2: convert ax + by != cte to clauses' was applied 260 times.
  - rule 'linear2: convert implied ax + by == cte to clauses' was applied 114 times.
  - rule 'linear2: implied ax + by = cte has only one solution' was applied 8 times.
  - rule 'linear: always true' was applied 414 times.
  - rule 'linear: empty' was applied 7 times.
  - rule 'linear: enforcement literal in expression' was applied 6 times.
  - rule 'linear: extracted at most one (max)' was applied 1 time.
  - rule 'linear: fixed or dup variables' was applied 886 times.
  - rule 'linear: negative clause' was applied 1'293 times.
  - rule 'linear: negative reified and' was applied 78 times.
  - rule 'linear: never in domain' was applied 6 times.
  - rule 'linear: positive at most one' was applied 34 times.
  - rule 'linear: reduced variable domains' was applied 4 times.
  - rule 'linear: remapped using affine relations' was applied 34 times.
  - rule 'presolve: 82 unused variables removed.' was applied 1 time.
  - rule 'presolve: iteration' was applied 3 times.
  - rule 'probing: bool_or reduced to implication' was applied 25 times.
  - rule 'probing: simplified clauses' was applied 15 times.
  - rule 'setppc: bool_or in at_most_one' was applied 7 times.
  - rule 'setppc: removed dominated constraints' was applied 88 times.
  - rule 'variables: both boolean and its negation fix the same variable' was applied 3 times.
  - rule 'variables: detect half reified value encoding' was applied 6 times.

Presolved satisfaction model '': (model_fingerprint: 0x64ca5eda3c4eee4c)
#Variables: 478 (410 primary variables)
  - 478 Booleans in [0,1]
#kAtMostOne: 46 (#literals: 181)
#kBoolAnd: 260 (#enforced: 260) (#literals: 706)
#kBoolAndClauses: 74 (#enforced: 74 #multi: 74) (#literals: 340)
#kBoolOr: 1'551 (#literals: 4'711)
#kExactlyOne: 52 (#literals: 196)
#kLinearN: 814 (#enforced: 118) (#terms: 5'700)
[Symmetry] Graph for symmetry has 4'000 nodes and 13'123 arcs.
[Symmetry] Symmetry computation done. time: 0.000940067 dtime: 0.00143594

Preloading model.
#Model   0.09s var:478/478 constraints:2797/2797

Starting search at 0.09s with 4 workers.
3 full problem subsolvers: [default_lp, max_lp, no_lp]
1 first solution subsolver: [fj]
2 interleaved subsolvers: [feasibility_pump, rins/rens]
2 helper subsolvers: [neighborhood_helper, synchronization_agent]

#Model   0.26s var:477/478 constraints:2797/2797
#Model   0.51s var:476/478 constraints:2796/2797
#Model   1.38s var:474/478 constraints:2796/2797
#Model  43.48s var:473/478 constraints:2794/2797
#Model 1963.85s var:472/478 constraints:2792/2797
#Model 2050.11s var:471/478 constraints:2777/2797
#Model 2178.32s var:470/478 constraints:2759/2797
#Model 2186.49s var:469/478 constraints:2738/2797
#Model 2205.84s var:467/478 constraints:2735/2797
#Model 2214.36s var:466/478 constraints:2715/2797
#Model 2219.97s var:465/478 constraints:2694/2797
#Model 2222.40s var:460/478 constraints:2624/2797
#Model 2226.62s var:459/478 constraints:2605/2797
#Model 2226.83s var:458/478 constraints:2589/2797
#Model 2227.12s var:457/478 constraints:2569/2797
#Model 2228.42s var:455/478 constraints:2534/2797
#Model 2228.45s var:454/478 constraints:2518/2797
#Model 2230.68s var:444/478 constraints:2425/2797
#Done  2230.73s no_lp

Task timing                   n [     min,      max]      avg      dev     time         n [     min,      max]      avg      dev    dtime
        'default_lp':         1 [  37.18m,   37.18m]   37.18m   0.00ns   37.18m         2 [  1.84ms,   37.46m]   18.73m   18.73m   37.46m
  'feasibility_pump':     11070 [771.65us, 130.87ms]   1.37ms   1.26ms   15.19s     11069 [266.82us, 117.41ms] 277.40us   1.11ms    3.07s
                'fj':      7938 [112.74ms, 233.59ms] 139.47ms   9.56ms   18.45m      7938 [100.00ms, 100.15ms] 100.02ms  14.58us   13.23m
            'max_lp':         1 [  37.18m,   37.18m]   37.18m   0.00ns   37.18m         2 [ 86.79ms,   51.65m]   25.83m   25.83m   51.65m
             'no_lp':         1 [  37.18m,   37.18m]   37.18m   0.00ns   37.18m         2 [  1.46ms,    1.28h]   38.27m   38.27m    1.28h
         'rins/rens':     10404 [770.56us, 236.99ms] 106.40ms  37.66ms   18.45m     10395 [392.85us, 100.36ms]  69.16ms  36.35ms   11.98m

Search stats     Bools   Conflicts    Branches  Restarts  BacktrackToRoot   Backtrack     BoolPropag  IntegerPropag
  'default_lp':    478     222'185   9'007'498       997        1'391'240   1'919'029     88'097'153     86'009'418
      'max_lp':    478      75'845  14'076'491       470        2'163'432   2'652'066    130'763'306    141'210'047
       'no_lp':    478  19'145'316  26'630'990    60'826          598'430  19'658'213  1'587'873'517    299'151'301

SAT formula      Fixed  Equiv  Total  VarLeft  BinaryClauses  PermanentClauses  TemporaryClauses
  'default_lp':     11      8    478      459          3'158            40'218             4'992
      'max_lp':     18      9    478      451          3'086            36'018             2'600
       'no_lp':    259      9    478      210          2'968            61'889             1'451

SAT stats        ClassicMinim   LitRemoved  LitRemovedBinary   LitLearned  LitForgotten   Subsumed
  'default_lp':       198'446    2'640'212         1'141'327    5'691'797     3'297'845     86'212
      'max_lp':        63'034      692'621           377'858    1'504'084       586'689     34'989
       'no_lp':    17'092'330  309'683'197       107'304'931  470'544'476   379'351'103  4'968'731

Vivification       Clauses   Decisions  LitTrue  Subsumed  LitRemoved  DecisionReused  Conflicts
  'default_lp':  1'440'749   8'483'293        1    22'780     234'631         386'555      2'209
      'max_lp':  2'223'789  13'629'079        0    24'414     252'587         504'765      2'468
       'no_lp':    468'271   3'956'436        0    34'050     430'689         109'379      1'722

Clause deletion    at_true  l_and_not(l)  to_binary  sub_conflict  sub_extra  sub_decisions  sub_eager  sub_vivify  sub_probing  sub_inpro  blocked  eliminated   forgotten    promoted   conflicts
    'default_lp':    2'608         1'269         12        84'928        626          3'509      1'284      22'780       10'726     26'646        0           0     102'049     421'108     222'185
        'max_lp':    4'414         1'327         22        34'618        144            966        371      24'414       12'741     18'835        0           0      20'182     109'553      75'845
         'no_lp':   62'402         3'861        169     4'888'724     36'803        196'650     80'007      34'050       32'033    160'263        0           0  13'595'377  43'297'188  19'145'316

Lp stats         Component  Iterations  AddedCuts  OPTIMAL  DUAL_F.  DUAL_U.
  'default_lp':          1  28'389'648     66'259  292'070        1  168'990
      'max_lp':          1  14'601'709     52'744   25'282   40'312   29'167

Lp dimension        Final dimension of first component
  'default_lp':    327 rows, 335 columns, 3743 entries
      'max_lp':  1471 rows, 478 columns, 21352 entries

Lp debug         CutPropag  CutEqPropag   Adjust  Overflow        Bad  BadScaling
  'default_lp':          0          132  168'958         0  1'587'304           0
      'max_lp':          0          191   29'162         0  1'348'761           0

Lp pool          Constraints  Updates  Simplif  Merged  Shortened  Split  Strengthened      Cuts/Call
  'default_lp':       10'030   14'469        0       0         20      0             0  66'259/70'908
      'max_lp':       12'874   17'272        0       3         28      0         1'270  52'744/67'740

Lp Cut           default_lp  max_lp
         CG_FF:       1'150     133
          CG_K:         593      17
         CG_KL:         558       8
          CG_R:       1'312      90
        Clique:           -     290
      MIR_1_FF:         461     619
       MIR_1_K:          73      23
      MIR_1_KL:         270      11
       MIR_1_R:         436     245
     MIR_1_RLT:           -   5'470
      MIR_2_FF:         517     395
       MIR_2_K:         101      63
      MIR_2_KL:         258      80
       MIR_2_R:         696     322
      MIR_3_FF:         297     127
       MIR_3_K:          53       5
      MIR_3_KL:          94      18
       MIR_3_R:         400     150
      MIR_4_FF:          98      30
       MIR_4_K:          26      11
      MIR_4_KL:          32       7
       MIR_4_R:         284     118
      MIR_5_FF:          42       8
       MIR_5_K:          15       2
      MIR_5_KL:           9       2
       MIR_5_R:         184      94
      MIR_6_FF:          34       4
       MIR_6_K:          12       -
       MIR_6_R:         152      85
  ZERO_HALF_FF:         503     465
   ZERO_HALF_K:          77       5
  ZERO_HALF_KL:          94       2
   ZERO_HALF_R:      57'428  43'845

LNS stats       Improv/Calls  Closed  Difficulty  TimeLimit
  'rins/rens':   10397/10397     50%    7.78e-01       0.10

LS stats                                    Batches  Restarts/Perturbs    LinMoves    GenMoves  CompoundMoves  Bactracks  WeightUpdates  ScoreComputed
                             'fj_restart':      525                119  15'408'098           0              0          0     14'503'133        179'722
                    'fj_restart_compound':      411                113           0   4'595'746        286'275  2'154'532         10'782     73'084'704
                'fj_restart_compound_obj':      710                103           0   7'953'799        304'355  3'824'526         25'049    126'700'745
            'fj_restart_compound_perturb':      714                 95           0   8'031'666        283'951  3'873'670         25'641    127'728'786
        'fj_restart_compound_perturb_obj':      566                 92           0   6'416'999        267'507  3'074'536         18'641    101'416'313
                       'fj_restart_decay':      338                104  11'206'937           0              0          0        491'176        553'502
              'fj_restart_decay_compound':      636                108           0   8'046'929      1'354'347  3'346'037          8'680    114'928'323
          'fj_restart_decay_compound_obj':      847                119           0  10'862'421      1'833'252  4'514'318         11'650    153'270'874
      'fj_restart_decay_compound_perturb':      236                104           0   2'690'384        462'955  1'113'490          3'323     42'261'397
  'fj_restart_decay_compound_perturb_obj':      423                105           0   5'194'690        881'618  2'156'305          5'874     76'243'105
                   'fj_restart_decay_obj':      378                108  12'545'465           0              0          0        549'820        625'129
               'fj_restart_decay_perturb':      399                114  13'237'216           0              0          0        580'294        660'258
           'fj_restart_decay_perturb_obj':      596                107  19'790'896           0              0          0        866'938        990'129
                         'fj_restart_obj':      235                102   7'206'883           0              0          0      6'080'328         90'258
                     'fj_restart_perturb':      498                130  15'299'697           0              0          0     13'242'018        180'873
                 'fj_restart_perturb_obj':      426                121  12'902'511           0              0          0     11'359'177        155'241

Solution repositories    Added  Queried  Synchro
    'alternative_path':      0        0        0
      'best_solutions':      0        0        0
   'fj solution hints':  1'736        0    1'736
        'lp solutions':    647   10'404      644
                'pump':      0        0

Improving bounds shared    Num  Sym
            'default_lp':    3    0
                'max_lp':    8    0
                 'no_lp':  172    0

Clauses shared    #Exported  #Imported  #BinaryRead  #BinaryTotal
   'default_lp':      5'934     78'608        1'315         1'731
       'max_lp':      6'348     80'318        1'550         1'731
        'no_lp':     80'029     11'789        1'731         1'731

LRAT_status: NA
CpSolverResponse summary:
status: INFEASIBLE
objective: NA
best_bound: NA
integers: 335
booleans: 478
conflicts: 19145316
branches: 26630990
propagations: 1587873517
integer_propagations: 299151301
restarts: 60826
lp_iterations: 0
walltime: 2230.75
usertime: 2230.75
deterministic_time: 11454.8
gap_integral: 0

{
  "board_size": 22,
  "parity_proved": 0,
  "target": 34,
  "child_id": 1581,
  "child_count": 2640,
  "partition": "unknown_pair_x_diag_plus_twos_x_diag_minus_twos",
  "build_seconds": 0.07916593551635742,
  "workers": 4,
  "requested_seed": 2026073681,
  "effective_seed": 2026073681,
  "main_diagonal_pair": [
    3,
    18
  ],
  "pair_index": 71,
  "diag_plus_twos": 16,
  "diag_minus_twos": 15,
  "pair_excess": 0,
  "residual_certificate_slack": 112,
  "analytic_minimum_line_defect": 46,
  "analytic_defect_details": {
    "row_costs": {
      "12": 6,
      "13": 3,
      "14": 0,
      "15": 0,
      "16": 0,
      "17": 0
    },
    "column_costs": {
      "12": 6,
      "13": 3,
      "14": 0,
      "15": 0,
      "16": 0,
      "17": 0
    },
    "plus_cost": 24,
    "minus_cost": 22,
    "row_column_minimum": 0
  },
  "maximal_line_constraints": 2455,
  "analytic_infeasible": false,
  "allowed_points": 242,
  "status": "INFEASIBLE",
  "proof_method": "cp_sat_all_lines_with_certificate_profile_cuts",
  "elapsed_seconds": 2230.748358488083,
  "branches": 26630990,
  "conflicts": 19145316
}
